c File: instances/32_0.10_2.col
c
c Description: Random graph of size 32 vertices and P(0.1) of edges between any two vertices.
p col 32 496
e 1 7
e 1 16
e 1 17
e 1 23
e 1 27
e 2 3
e 2 22
e 2 25
e 2 29
e 2 31
e 3 4
e 3 12
e 3 17
e 3 21
e 3 26
e 4 9
e 4 14
e 4 28
e 5 10
e 5 16
e 5 20
e 5 21
e 5 27
e 5 29
e 7 10
e 7 13
e 8 29
e 9 13
e 9 29
e 10 16
e 10 17
e 10 32
e 11 20
e 12 19
e 12 25
e 13 29
e 14 24
e 14 32
e 16 31
e 17 23
e 19 26
e 19 31
e 19 32
e 21 29
e 22 32
e 24 30
e 24 31
e 25 26